ciphers.beaufort_cipher/4_sat.smt2
(set-logic ALL)
(declare-const cipher_text_VAR String)
(declare-const key_new_VAR String)
(assert (< 0 (str.len cipher_text_VAR)))
(assert (> (str.len cipher_text_VAR) 0))
(assert (not (= (str.at cipher_text_VAR 0) " ")))
(assert (not (= (str.at cipher_text_VAR 0) "A")))
(check-sat)
(get-value (cipher_text_VAR))
(get-value (key_new_VAR))
